************************************************************************
file with basedata            : mm64_.bas
initial value random generator: 1912881741
************************************************************************
projects                      :  1
jobs (incl. supersource/sink ):  12
horizon                       :  81
RESOURCES
  - renewable                 :  2   R
  - nonrenewable              :  2   N
  - doubly constrained        :  0   D
************************************************************************
PROJECT INFORMATION:
pronr.  #jobs rel.date duedate tardcost  MPM-Time
    1     10      0       12        2       12
************************************************************************
PRECEDENCE RELATIONS:
jobnr.    #modes  #successors   successors
   1        1          3           2   3   4
   2        3          3           5   7  11
   3        3          2           6   7
   4        3          3           6   8  10
   5        3          1           8
   6        3          1           9
   7        3          1           9
   8        3          1           9
   9        3          1          12
  10        3          1          12
  11        3          1          12
  12        1          0        
************************************************************************
REQUESTS/DURATIONS:
jobnr. mode duration  R 1  R 2  N 1  N 2
------------------------------------------------------------------------
  1      1     0       0    0    0    0
  2      1     1      10    4    4    7
         2     5       9    3    4    7
         3     6       6    2    4    7
  3      1     2       7    6    9    3
         2    10       3    6    4    2
         3    10       2    4    5    2
  4      1     1       5    7    9    7
         2     3       5    6    9    5
         3     9       4    4    9    1
  5      1     7       1    6    4    1
         2     7       6    5    3    1
         3     7       5    2    4    1
  6      1     5       6    8    6    1
         2     7       5    8    6    1
         3    10       4    6    3    1
  7      1     1       3    5    8    4
         2     1       4    5    7    4
         3    10       2    4    5    4
  8      1     2       4   10    6    4
         2     5       3    5    3    3
         3     7       3    5    1    2
  9      1     2       9    6    4    1
         2     3       9    3    3    1
         3    10       8    3    2    1
 10      1     2       8    6    6    7
         2     6       4    5    2    4
         3     6       1    5    3    5
 11      1     3       3    5    8   10
         2     4       3    4    7    6
         3     6       3    2    7    5
 12      1     0       0    0    0    0
************************************************************************
RESOURCEAVAILABILITIES:
  R 1  R 2  N 1  N 2
   27   30   64   45
************************************************************************
MAXIMAL LAGS:
from  to  type  delay
    1   12   ES      0
    1    2   ES      0
    2   12   ES      0
    1    3   ES      0
    3   12   ES      0
    1    4   ES      0
    4   12   ES      0
    1    5   ES      0
    5   12   ES      0
    1    6   ES      0
    6   12   ES      0
    1    7   ES      0
    7   12   ES      0
    1    8   ES      0
    8   12   ES      0
    1    9   ES      0
    9   12   ES      0
    1   10   ES      0
   10   12   ES      0
    1   11   ES      0
   11   12   ES      0
    1   12   ES      0
    2    5   SS     12
    2    5   SE     -9
    2    5   ES     -8
    2    5   EE     -1
    2    7   SS      0
    2    7   SE     11
    2    7   ES     11
    2    7   EE    -11
    2   11   SS      5
    2   11   SE     -6
    2   11   ES     -7
    2   11   EE    -11
    3    6   SS    -11
    3    6   SE     -4
    3    6   ES     12
    3    6   EE      5
    3    7   SS      3
    3    7   SE      7
    3    7   ES      9
    3    7   EE      2
    4    6   SS      4
    4    6   SE      4
    4    6   ES      4
    4    6   EE      6
    4    8   SS      2
    4    8   SE     -1
    4    8   ES      9
    4    8   EE     -6
    4   10   SS     10
    4   10   SE     11
    4   10   ES     11
    4   10   EE     10
    5    8   SS     -1
    5    8   SE      9
    5    8   ES      4
    5    8   EE     -1
    6    9   SS     -7
    6    9   SE     -5
    6    9   ES      8
    6    9   EE      5
    7    9   SS      0
    7    9   SE    -11
    7    9   ES     12
    7    9   EE     12
    8    9   SS    -11
    8    9   SE     -6
    8    9   ES    -12
    8    9   EE     -4
************************************************************************
